p tw 40 541
0 1
0 2
0 3
0 4
0 5
0 6
0 7
0 12
0 13
0 14
0 15
0 16
0 21
0 23
0 25
0 31
0 9
0 18
0 20
0 30
0 36
0 22
0 28
0 37
0 26
0 29
0 35
0 19
0 24
0 39
0 8
0 38
0 34
0 27
0 32
0 10
1 2
1 3
1 4
1 5
1 6
1 15
1 18
1 19
1 20
1 21
1 22
1 7
1 25
1 26
1 27
1 28
1 12
1 23
1 29
1 30
1 9
1 33
1 36
1 10
1 11
1 17
1 34
1 38
1 14
1 24
1 32
1 39
2 3
2 4
2 5
2 6
2 14
2 16
2 17
2 23
2 24
2 15
2 22
2 28
2 30
2 37
2 25
2 26
2 29
2 7
2 27
2 36
2 10
2 18
2 19
2 11
2 12
2 33
2 35
3 4
3 5
3 6
3 7
3 9
3 14
3 18
3 10
3 11
3 15
3 17
3 34
3 38
3 19
3 24
3 8
3 20
3 39
4 5
4 6
4 7
4 12
4 23
4 29
4 30
4 21
4 25
4 31
4 9
4 20
4 28
4 33
4 35
4 14
4 15
4 27
4 32
4 34
4 36
4 37
5 6
5 7
5 8
5 9
5 10
5 11
5 12
5 17
5 18
5 14
5 16
5 23
5 24
5 21
5 25
5 31
5 28
5 22
5 26
5 29
5 37
5 32
5 34
5 36
6 7
6 8
6 9
6 10
6 11
6 14
6 18
6 17
6 28
6 31
6 15
6 12
6 30
6 33
6 37
6 24
6 25
6 38
6 35
7 8
7 9
7 10
7 11
7 12
7 13
7 14
7 15
7 16
7 17
7 18
7 21
7 25
7 26
7 27
7 28
7 23
7 29
7 30
7 24
7 32
7 33
7 35
7 36
8 9
8 10
8 11
8 12
8 17
8 18
8 30
8 33
8 37
8 21
8 26
8 28
8 38
8 19
8 34
8 36
8 20
8 39
9 10
9 11
9 16
9 19
9 21
9 25
9 32
9 34
9 14
9 18
9 26
9 33
9 36
9 12
9 13
9 20
9 30
9 17
9 22
9 23
9 31
9 37
9 28
9 35
9 38
9 15
9 27
9 29
10 11
10 14
10 17
10 28
10 31
10 15
10 18
10 23
10 25
10 33
10 36
10 37
10 19
10 24
10 12
10 30
10 34
10 35
10 20
10 39
11 12
11 17
11 18
11 15
11 22
11 23
11 31
11 37
11 33
11 35
12 13
12 14
12 15
12 16
12 17
12 18
12 23
12 29
12 30
12 20
12 36
12 33
12 37
12 31
12 34
12 35
12 19
12 28
13 14
13 15
13 16
13 21
13 23
13 24
13 32
13 33
13 20
13 30
13 36
13 19
13 29
13 39
14 15
14 16
14 17
14 23
14 24
14 18
14 19
14 26
14 32
14 35
14 28
14 31
14 27
14 30
14 36
14 25
14 37
14 38
14 29
14 33
15 16
15 18
15 19
15 20
15 21
15 22
15 17
15 26
15 32
15 35
15 28
15 30
15 37
15 27
15 29
15 33
15 24
15 39
15 34
16 17
16 23
16 24
16 19
16 21
16 25
16 32
16 34
16 26
16 29
16 35
16 39
17 18
17 23
17 24
17 19
17 26
17 32
17 35
17 28
17 31
17 22
17 37
17 34
17 38
17 20
17 39
18 19
18 20
18 21
18 22
18 25
18 26
18 33
18 36
18 30
18 37
18 34
18 38
18 23
18 24
18 28
18 35
19 20
19 21
19 22
19 25
19 32
19 34
19 26
19 35
19 24
19 29
19 36
19 39
19 30
20 21
20 22
20 30
20 36
20 35
20 37
20 38
20 39
20 28
20 33
21 22
21 25
21 26
21 27
21 28
21 23
21 31
21 24
21 32
21 33
21 34
21 35
21 37
21 38
21 39
21 30
21 36
21 29
22 23
22 31
22 37
22 28
22 30
22 35
22 38
22 39
22 25
22 26
22 29
23 24
23 29
23 30
23 25
23 31
23 32
23 33
23 37
23 26
23 35
23 36
24 32
24 33
24 29
24 36
24 39
24 25
24 28
24 37
24 38
24 27
24 34
25 26
25 27
25 28
25 31
25 32
25 34
25 33
25 36
25 29
25 37
25 38
26 27
26 28
26 32
26 35
26 33
26 36
26 29
26 37
26 30
26 38
27 28
27 30
27 36
27 29
27 33
27 32
27 39
28 31
28 30
28 37
28 33
28 35
28 38
28 36
29 30
29 35
29 37
29 36
29 39
29 33
29 34
30 36
30 37
30 33
30 35
30 38
30 34
31 37
31 32
31 34
31 36
31 35
32 33
32 34
32 35
32 36
32 39
33 36
33 37
33 35
34 38
34 36
34 35
34 37
34 39
35 37
35 38
35 39
35 36
36 39
36 37
37 38
37 39
38 39
